1
402 437 961  580
20
246 209 296  221 203
367 683 636  117 195
95 705 723  175 245
80 711 487  30 168
112 26 576  275 240
673 2 566  146 187
159 734 149  53 264
591 402 202  182 35
563 400 645  27 298
172 717 278  269 58
281 463 163  116 183
582 273 511  124 254
162 479 343  6 292
154 2 555  172 186
663 554 541  283 43
223 327 451  13 108
672 270 630  241 8
95 773 720  18 113
115 800 393  84 49
673 434 327  272 150
